% From Gecode's examples/domino.cc
% Example 5
r = 7;
c = 8;
high = 6;
board = array2d(1..r, 1..c, 
    [
      4,1,2,1,0,2,4,4,
      5,5,6,6,0,4,6,3,
      6,0,5,1,1,0,5,3,
      3,4,2,2,0,3,1,2,
      3,6,5,6,1,2,3,2,
      2,5,0,6,6,3,3,5,
      4,1,0,0,4,1,4,5
    ])
;
